; 
(set-info :status unknown)
(declare-fun standard_metadata.ingress_port () (_ BitVec 9))
(declare-fun standard_metadata.egress_spec () (_ BitVec 9))
(declare-fun ipv4.dstAddr () (_ BitVec 32))
(declare-fun ipv4.$valid$ () Bool)
(assert
 (let (($x137 (= standard_metadata.ingress_port (_ bv1 9))))
 (and (and (distinct standard_metadata.ingress_port (_ bv511 9)) true) (or (or false (= standard_metadata.ingress_port (_ bv0 9))) $x137))))
(assert
 (let (($x45 (= ipv4.dstAddr (_ bv168427520 32))))
 (let (($x46 (and true $x45)))
 (let (($x61 (not $x46)))
 (let (($x65 (and $x61 (not (and true (= ((_ extract 31 16) ipv4.dstAddr) ((_ extract 31 16) (_ bv168427520 32))))))))
 (let (($x69 (and $x65 (not (and true (= ((_ extract 31 16) ipv4.dstAddr) ((_ extract 31 16) (_ bv336855040 32))))))))
 (let (($x73 (and $x69 (not (and true (= ((_ extract 31 24) ipv4.dstAddr) ((_ extract 31 24) (_ bv167772160 32))))))))
 (let (($x42 (and true ipv4.$valid$)))
 (let (($x74 (and $x42 $x73)))
 (let ((?x88 (concat (_ bv0 8) (_ bv1 1))))
 (let (($x59 (and true (= ((_ extract 31 24) ipv4.dstAddr) ((_ extract 31 24) (_ bv167772160 32))))))
 (let (($x71 (and (and $x42 $x69) $x59)))
 (let (($x54 (and true (= ((_ extract 31 16) ipv4.dstAddr) ((_ extract 31 16) (_ bv336855040 32))))))
 (let (($x67 (and (and $x42 $x65) $x54)))
 (let ((?x102 (ite $x67 ?x88 (ite $x71 ?x88 (ite $x74 (_ bv511 9) standard_metadata.egress_spec)))))
 (let (($x50 (and true (= ((_ extract 31 16) ipv4.dstAddr) ((_ extract 31 16) (_ bv168427520 32))))))
 (let (($x63 (and (and $x42 $x61) $x50)))
 (let (($x60 (and $x42 $x46)))
 (let ((?x124 (ite $x60 ?x88 (ite $x63 (concat (_ bv0 8) (_ bv0 1)) ?x102))))
 (let (($x41 (= ?x124 (_ bv511 9))))
 (or $x41 (or (or false (= ?x124 (_ bv0 9))) (= ?x124 (_ bv1 9))))))))))))))))))))))))
(assert
 (let (($x59 (and true (= ((_ extract 31 24) ipv4.dstAddr) ((_ extract 31 24) (_ bv167772160 32))))))
 (let (($x42 (and true ipv4.$valid$)))
 (let ((?x100 (ite (and $x42 (and true (= ((_ extract 31 16) ipv4.dstAddr) ((_ extract 31 16) (_ bv336855040 32))))) 3 (ite (and $x42 $x59) 2 (- 1)))))
 (let ((?x112 (ite (and $x42 (and true (= ((_ extract 31 16) ipv4.dstAddr) ((_ extract 31 16) (_ bv168427520 32))))) 0 ?x100)))
 (let (($x45 (= ipv4.dstAddr (_ bv168427520 32))))
 (let (($x46 (and true $x45)))
 (let (($x60 (and $x42 $x46)))
 (let ((?x131 (ite ipv4.$valid$ (ite $x60 1 ?x112) (- 1))))
 (let (($x130 (ite ipv4.$valid$ $x42 false)))
 (let (($x61 (not $x46)))
 (let (($x65 (and $x61 (not (and true (= ((_ extract 31 16) ipv4.dstAddr) ((_ extract 31 16) (_ bv168427520 32))))))))
 (let (($x69 (and $x65 (not (and true (= ((_ extract 31 16) ipv4.dstAddr) ((_ extract 31 16) (_ bv336855040 32))))))))
 (let (($x74 (and $x42 (and $x69 (not $x59)))))
 (let ((?x88 (concat (_ bv0 8) (_ bv1 1))))
 (let (($x71 (and (and $x42 $x69) $x59)))
 (let (($x54 (and true (= ((_ extract 31 16) ipv4.dstAddr) ((_ extract 31 16) (_ bv336855040 32))))))
 (let (($x67 (and (and $x42 $x65) $x54)))
 (let ((?x102 (ite $x67 ?x88 (ite $x71 ?x88 (ite $x74 (_ bv511 9) standard_metadata.egress_spec)))))
 (let (($x50 (and true (= ((_ extract 31 16) ipv4.dstAddr) ((_ extract 31 16) (_ bv168427520 32))))))
 (let (($x63 (and (and $x42 $x61) $x50)))
 (let ((?x124 (ite $x60 ?x88 (ite $x63 (concat (_ bv0 8) (_ bv0 1)) ?x102))))
 (let (($x41 (= ?x124 (_ bv511 9))))
 (and (and (not $x41) $x130) (= ?x131 (- 1))))))))))))))))))))))))))
(check-sat)

; 
(set-info :status unknown)
(declare-fun standard_metadata.ingress_port () (_ BitVec 9))
(declare-fun standard_metadata.egress_spec () (_ BitVec 9))
(declare-fun ipv4.dstAddr () (_ BitVec 32))
(declare-fun ipv4.$valid$ () Bool)
(assert
 (let (($x137 (= standard_metadata.ingress_port (_ bv1 9))))
 (and (and (distinct standard_metadata.ingress_port (_ bv511 9)) true) (or (or false (= standard_metadata.ingress_port (_ bv0 9))) $x137))))
(assert
 (let (($x45 (= ipv4.dstAddr (_ bv168427520 32))))
 (let (($x46 (and true $x45)))
 (let (($x61 (not $x46)))
 (let (($x65 (and $x61 (not (and true (= ((_ extract 31 16) ipv4.dstAddr) ((_ extract 31 16) (_ bv168427520 32))))))))
 (let (($x69 (and $x65 (not (and true (= ((_ extract 31 16) ipv4.dstAddr) ((_ extract 31 16) (_ bv336855040 32))))))))
 (let (($x73 (and $x69 (not (and true (= ((_ extract 31 24) ipv4.dstAddr) ((_ extract 31 24) (_ bv167772160 32))))))))
 (let (($x42 (and true ipv4.$valid$)))
 (let (($x74 (and $x42 $x73)))
 (let ((?x88 (concat (_ bv0 8) (_ bv1 1))))
 (let (($x59 (and true (= ((_ extract 31 24) ipv4.dstAddr) ((_ extract 31 24) (_ bv167772160 32))))))
 (let (($x71 (and (and $x42 $x69) $x59)))
 (let (($x54 (and true (= ((_ extract 31 16) ipv4.dstAddr) ((_ extract 31 16) (_ bv336855040 32))))))
 (let (($x67 (and (and $x42 $x65) $x54)))
 (let ((?x102 (ite $x67 ?x88 (ite $x71 ?x88 (ite $x74 (_ bv511 9) standard_metadata.egress_spec)))))
 (let (($x50 (and true (= ((_ extract 31 16) ipv4.dstAddr) ((_ extract 31 16) (_ bv168427520 32))))))
 (let (($x63 (and (and $x42 $x61) $x50)))
 (let (($x60 (and $x42 $x46)))
 (let ((?x124 (ite $x60 ?x88 (ite $x63 (concat (_ bv0 8) (_ bv0 1)) ?x102))))
 (let (($x41 (= ?x124 (_ bv511 9))))
 (or $x41 (or (or false (= ?x124 (_ bv0 9))) (= ?x124 (_ bv1 9))))))))))))))))))))))))
(assert
 (let (($x59 (and true (= ((_ extract 31 24) ipv4.dstAddr) ((_ extract 31 24) (_ bv167772160 32))))))
 (let (($x42 (and true ipv4.$valid$)))
 (let ((?x100 (ite (and $x42 (and true (= ((_ extract 31 16) ipv4.dstAddr) ((_ extract 31 16) (_ bv336855040 32))))) 3 (ite (and $x42 $x59) 2 (- 1)))))
 (let ((?x112 (ite (and $x42 (and true (= ((_ extract 31 16) ipv4.dstAddr) ((_ extract 31 16) (_ bv168427520 32))))) 0 ?x100)))
 (let (($x45 (= ipv4.dstAddr (_ bv168427520 32))))
 (let (($x46 (and true $x45)))
 (let (($x60 (and $x42 $x46)))
 (let ((?x131 (ite ipv4.$valid$ (ite $x60 1 ?x112) (- 1))))
 (let (($x130 (ite ipv4.$valid$ $x42 false)))
 (let (($x61 (not $x46)))
 (let (($x65 (and $x61 (not (and true (= ((_ extract 31 16) ipv4.dstAddr) ((_ extract 31 16) (_ bv168427520 32))))))))
 (let (($x69 (and $x65 (not (and true (= ((_ extract 31 16) ipv4.dstAddr) ((_ extract 31 16) (_ bv336855040 32))))))))
 (let (($x74 (and $x42 (and $x69 (not $x59)))))
 (let ((?x88 (concat (_ bv0 8) (_ bv1 1))))
 (let (($x71 (and (and $x42 $x69) $x59)))
 (let (($x54 (and true (= ((_ extract 31 16) ipv4.dstAddr) ((_ extract 31 16) (_ bv336855040 32))))))
 (let (($x67 (and (and $x42 $x65) $x54)))
 (let ((?x102 (ite $x67 ?x88 (ite $x71 ?x88 (ite $x74 (_ bv511 9) standard_metadata.egress_spec)))))
 (let (($x50 (and true (= ((_ extract 31 16) ipv4.dstAddr) ((_ extract 31 16) (_ bv168427520 32))))))
 (let (($x63 (and (and $x42 $x61) $x50)))
 (let ((?x124 (ite $x60 ?x88 (ite $x63 (concat (_ bv0 8) (_ bv0 1)) ?x102))))
 (let (($x41 (= ?x124 (_ bv511 9))))
 (let (($x255 (and (not $x41) $x130)))
 (and $x255 (= ?x131 0))))))))))))))))))))))))))
(check-sat)

; 
(set-info :status unknown)
(declare-fun standard_metadata.ingress_port () (_ BitVec 9))
(declare-fun standard_metadata.egress_spec () (_ BitVec 9))
(declare-fun ipv4.dstAddr () (_ BitVec 32))
(declare-fun ipv4.$valid$ () Bool)
(assert
 (let (($x137 (= standard_metadata.ingress_port (_ bv1 9))))
 (and (and (distinct standard_metadata.ingress_port (_ bv511 9)) true) (or (or false (= standard_metadata.ingress_port (_ bv0 9))) $x137))))
(assert
 (let (($x45 (= ipv4.dstAddr (_ bv168427520 32))))
 (let (($x46 (and true $x45)))
 (let (($x61 (not $x46)))
 (let (($x65 (and $x61 (not (and true (= ((_ extract 31 16) ipv4.dstAddr) ((_ extract 31 16) (_ bv168427520 32))))))))
 (let (($x69 (and $x65 (not (and true (= ((_ extract 31 16) ipv4.dstAddr) ((_ extract 31 16) (_ bv336855040 32))))))))
 (let (($x73 (and $x69 (not (and true (= ((_ extract 31 24) ipv4.dstAddr) ((_ extract 31 24) (_ bv167772160 32))))))))
 (let (($x42 (and true ipv4.$valid$)))
 (let (($x74 (and $x42 $x73)))
 (let ((?x88 (concat (_ bv0 8) (_ bv1 1))))
 (let (($x59 (and true (= ((_ extract 31 24) ipv4.dstAddr) ((_ extract 31 24) (_ bv167772160 32))))))
 (let (($x71 (and (and $x42 $x69) $x59)))
 (let (($x54 (and true (= ((_ extract 31 16) ipv4.dstAddr) ((_ extract 31 16) (_ bv336855040 32))))))
 (let (($x67 (and (and $x42 $x65) $x54)))
 (let ((?x102 (ite $x67 ?x88 (ite $x71 ?x88 (ite $x74 (_ bv511 9) standard_metadata.egress_spec)))))
 (let (($x50 (and true (= ((_ extract 31 16) ipv4.dstAddr) ((_ extract 31 16) (_ bv168427520 32))))))
 (let (($x63 (and (and $x42 $x61) $x50)))
 (let (($x60 (and $x42 $x46)))
 (let ((?x124 (ite $x60 ?x88 (ite $x63 (concat (_ bv0 8) (_ bv0 1)) ?x102))))
 (let (($x41 (= ?x124 (_ bv511 9))))
 (or $x41 (or (or false (= ?x124 (_ bv0 9))) (= ?x124 (_ bv1 9))))))))))))))))))))))))
(assert
 (let (($x59 (and true (= ((_ extract 31 24) ipv4.dstAddr) ((_ extract 31 24) (_ bv167772160 32))))))
 (let (($x42 (and true ipv4.$valid$)))
 (let ((?x100 (ite (and $x42 (and true (= ((_ extract 31 16) ipv4.dstAddr) ((_ extract 31 16) (_ bv336855040 32))))) 3 (ite (and $x42 $x59) 2 (- 1)))))
 (let ((?x112 (ite (and $x42 (and true (= ((_ extract 31 16) ipv4.dstAddr) ((_ extract 31 16) (_ bv168427520 32))))) 0 ?x100)))
 (let (($x45 (= ipv4.dstAddr (_ bv168427520 32))))
 (let (($x46 (and true $x45)))
 (let (($x60 (and $x42 $x46)))
 (let ((?x131 (ite ipv4.$valid$ (ite $x60 1 ?x112) (- 1))))
 (let (($x130 (ite ipv4.$valid$ $x42 false)))
 (let (($x61 (not $x46)))
 (let (($x65 (and $x61 (not (and true (= ((_ extract 31 16) ipv4.dstAddr) ((_ extract 31 16) (_ bv168427520 32))))))))
 (let (($x69 (and $x65 (not (and true (= ((_ extract 31 16) ipv4.dstAddr) ((_ extract 31 16) (_ bv336855040 32))))))))
 (let (($x74 (and $x42 (and $x69 (not $x59)))))
 (let ((?x88 (concat (_ bv0 8) (_ bv1 1))))
 (let (($x71 (and (and $x42 $x69) $x59)))
 (let (($x54 (and true (= ((_ extract 31 16) ipv4.dstAddr) ((_ extract 31 16) (_ bv336855040 32))))))
 (let (($x67 (and (and $x42 $x65) $x54)))
 (let ((?x102 (ite $x67 ?x88 (ite $x71 ?x88 (ite $x74 (_ bv511 9) standard_metadata.egress_spec)))))
 (let (($x50 (and true (= ((_ extract 31 16) ipv4.dstAddr) ((_ extract 31 16) (_ bv168427520 32))))))
 (let (($x63 (and (and $x42 $x61) $x50)))
 (let ((?x124 (ite $x60 ?x88 (ite $x63 (concat (_ bv0 8) (_ bv0 1)) ?x102))))
 (let (($x41 (= ?x124 (_ bv511 9))))
 (and (and (not $x41) $x130) (= ?x131 1)))))))))))))))))))))))))
(check-sat)

; 
(set-info :status unknown)
(declare-fun standard_metadata.ingress_port () (_ BitVec 9))
(declare-fun standard_metadata.egress_spec () (_ BitVec 9))
(declare-fun ipv4.dstAddr () (_ BitVec 32))
(declare-fun ipv4.$valid$ () Bool)
(assert
 (let (($x137 (= standard_metadata.ingress_port (_ bv1 9))))
 (and (and (distinct standard_metadata.ingress_port (_ bv511 9)) true) (or (or false (= standard_metadata.ingress_port (_ bv0 9))) $x137))))
(assert
 (let (($x45 (= ipv4.dstAddr (_ bv168427520 32))))
 (let (($x46 (and true $x45)))
 (let (($x61 (not $x46)))
 (let (($x65 (and $x61 (not (and true (= ((_ extract 31 16) ipv4.dstAddr) ((_ extract 31 16) (_ bv168427520 32))))))))
 (let (($x69 (and $x65 (not (and true (= ((_ extract 31 16) ipv4.dstAddr) ((_ extract 31 16) (_ bv336855040 32))))))))
 (let (($x73 (and $x69 (not (and true (= ((_ extract 31 24) ipv4.dstAddr) ((_ extract 31 24) (_ bv167772160 32))))))))
 (let (($x42 (and true ipv4.$valid$)))
 (let (($x74 (and $x42 $x73)))
 (let ((?x88 (concat (_ bv0 8) (_ bv1 1))))
 (let (($x59 (and true (= ((_ extract 31 24) ipv4.dstAddr) ((_ extract 31 24) (_ bv167772160 32))))))
 (let (($x71 (and (and $x42 $x69) $x59)))
 (let (($x54 (and true (= ((_ extract 31 16) ipv4.dstAddr) ((_ extract 31 16) (_ bv336855040 32))))))
 (let (($x67 (and (and $x42 $x65) $x54)))
 (let ((?x102 (ite $x67 ?x88 (ite $x71 ?x88 (ite $x74 (_ bv511 9) standard_metadata.egress_spec)))))
 (let (($x50 (and true (= ((_ extract 31 16) ipv4.dstAddr) ((_ extract 31 16) (_ bv168427520 32))))))
 (let (($x63 (and (and $x42 $x61) $x50)))
 (let (($x60 (and $x42 $x46)))
 (let ((?x124 (ite $x60 ?x88 (ite $x63 (concat (_ bv0 8) (_ bv0 1)) ?x102))))
 (let (($x41 (= ?x124 (_ bv511 9))))
 (or $x41 (or (or false (= ?x124 (_ bv0 9))) (= ?x124 (_ bv1 9))))))))))))))))))))))))
(assert
 (let (($x59 (and true (= ((_ extract 31 24) ipv4.dstAddr) ((_ extract 31 24) (_ bv167772160 32))))))
 (let (($x42 (and true ipv4.$valid$)))
 (let ((?x100 (ite (and $x42 (and true (= ((_ extract 31 16) ipv4.dstAddr) ((_ extract 31 16) (_ bv336855040 32))))) 3 (ite (and $x42 $x59) 2 (- 1)))))
 (let ((?x112 (ite (and $x42 (and true (= ((_ extract 31 16) ipv4.dstAddr) ((_ extract 31 16) (_ bv168427520 32))))) 0 ?x100)))
 (let (($x45 (= ipv4.dstAddr (_ bv168427520 32))))
 (let (($x46 (and true $x45)))
 (let (($x60 (and $x42 $x46)))
 (let ((?x131 (ite ipv4.$valid$ (ite $x60 1 ?x112) (- 1))))
 (let (($x130 (ite ipv4.$valid$ $x42 false)))
 (let (($x61 (not $x46)))
 (let (($x65 (and $x61 (not (and true (= ((_ extract 31 16) ipv4.dstAddr) ((_ extract 31 16) (_ bv168427520 32))))))))
 (let (($x69 (and $x65 (not (and true (= ((_ extract 31 16) ipv4.dstAddr) ((_ extract 31 16) (_ bv336855040 32))))))))
 (let (($x74 (and $x42 (and $x69 (not $x59)))))
 (let ((?x88 (concat (_ bv0 8) (_ bv1 1))))
 (let (($x71 (and (and $x42 $x69) $x59)))
 (let (($x54 (and true (= ((_ extract 31 16) ipv4.dstAddr) ((_ extract 31 16) (_ bv336855040 32))))))
 (let (($x67 (and (and $x42 $x65) $x54)))
 (let ((?x102 (ite $x67 ?x88 (ite $x71 ?x88 (ite $x74 (_ bv511 9) standard_metadata.egress_spec)))))
 (let (($x50 (and true (= ((_ extract 31 16) ipv4.dstAddr) ((_ extract 31 16) (_ bv168427520 32))))))
 (let (($x63 (and (and $x42 $x61) $x50)))
 (let ((?x124 (ite $x60 ?x88 (ite $x63 (concat (_ bv0 8) (_ bv0 1)) ?x102))))
 (let (($x41 (= ?x124 (_ bv511 9))))
 (and (and (not $x41) $x130) (= ?x131 2)))))))))))))))))))))))))
(check-sat)

; 
(set-info :status unknown)
(declare-fun standard_metadata.ingress_port () (_ BitVec 9))
(declare-fun standard_metadata.egress_spec () (_ BitVec 9))
(declare-fun ipv4.dstAddr () (_ BitVec 32))
(declare-fun ipv4.$valid$ () Bool)
(assert
 (let (($x137 (= standard_metadata.ingress_port (_ bv1 9))))
 (and (and (distinct standard_metadata.ingress_port (_ bv511 9)) true) (or (or false (= standard_metadata.ingress_port (_ bv0 9))) $x137))))
(assert
 (let (($x45 (= ipv4.dstAddr (_ bv168427520 32))))
 (let (($x46 (and true $x45)))
 (let (($x61 (not $x46)))
 (let (($x65 (and $x61 (not (and true (= ((_ extract 31 16) ipv4.dstAddr) ((_ extract 31 16) (_ bv168427520 32))))))))
 (let (($x69 (and $x65 (not (and true (= ((_ extract 31 16) ipv4.dstAddr) ((_ extract 31 16) (_ bv336855040 32))))))))
 (let (($x73 (and $x69 (not (and true (= ((_ extract 31 24) ipv4.dstAddr) ((_ extract 31 24) (_ bv167772160 32))))))))
 (let (($x42 (and true ipv4.$valid$)))
 (let (($x74 (and $x42 $x73)))
 (let ((?x88 (concat (_ bv0 8) (_ bv1 1))))
 (let (($x59 (and true (= ((_ extract 31 24) ipv4.dstAddr) ((_ extract 31 24) (_ bv167772160 32))))))
 (let (($x71 (and (and $x42 $x69) $x59)))
 (let (($x54 (and true (= ((_ extract 31 16) ipv4.dstAddr) ((_ extract 31 16) (_ bv336855040 32))))))
 (let (($x67 (and (and $x42 $x65) $x54)))
 (let ((?x102 (ite $x67 ?x88 (ite $x71 ?x88 (ite $x74 (_ bv511 9) standard_metadata.egress_spec)))))
 (let (($x50 (and true (= ((_ extract 31 16) ipv4.dstAddr) ((_ extract 31 16) (_ bv168427520 32))))))
 (let (($x63 (and (and $x42 $x61) $x50)))
 (let (($x60 (and $x42 $x46)))
 (let ((?x124 (ite $x60 ?x88 (ite $x63 (concat (_ bv0 8) (_ bv0 1)) ?x102))))
 (let (($x41 (= ?x124 (_ bv511 9))))
 (or $x41 (or (or false (= ?x124 (_ bv0 9))) (= ?x124 (_ bv1 9))))))))))))))))))))))))
(assert
 (let (($x59 (and true (= ((_ extract 31 24) ipv4.dstAddr) ((_ extract 31 24) (_ bv167772160 32))))))
 (let (($x42 (and true ipv4.$valid$)))
 (let ((?x100 (ite (and $x42 (and true (= ((_ extract 31 16) ipv4.dstAddr) ((_ extract 31 16) (_ bv336855040 32))))) 3 (ite (and $x42 $x59) 2 (- 1)))))
 (let ((?x112 (ite (and $x42 (and true (= ((_ extract 31 16) ipv4.dstAddr) ((_ extract 31 16) (_ bv168427520 32))))) 0 ?x100)))
 (let (($x45 (= ipv4.dstAddr (_ bv168427520 32))))
 (let (($x46 (and true $x45)))
 (let (($x60 (and $x42 $x46)))
 (let ((?x131 (ite ipv4.$valid$ (ite $x60 1 ?x112) (- 1))))
 (let (($x130 (ite ipv4.$valid$ $x42 false)))
 (let (($x61 (not $x46)))
 (let (($x65 (and $x61 (not (and true (= ((_ extract 31 16) ipv4.dstAddr) ((_ extract 31 16) (_ bv168427520 32))))))))
 (let (($x69 (and $x65 (not (and true (= ((_ extract 31 16) ipv4.dstAddr) ((_ extract 31 16) (_ bv336855040 32))))))))
 (let (($x74 (and $x42 (and $x69 (not $x59)))))
 (let ((?x88 (concat (_ bv0 8) (_ bv1 1))))
 (let (($x71 (and (and $x42 $x69) $x59)))
 (let (($x54 (and true (= ((_ extract 31 16) ipv4.dstAddr) ((_ extract 31 16) (_ bv336855040 32))))))
 (let (($x67 (and (and $x42 $x65) $x54)))
 (let ((?x102 (ite $x67 ?x88 (ite $x71 ?x88 (ite $x74 (_ bv511 9) standard_metadata.egress_spec)))))
 (let (($x50 (and true (= ((_ extract 31 16) ipv4.dstAddr) ((_ extract 31 16) (_ bv168427520 32))))))
 (let (($x63 (and (and $x42 $x61) $x50)))
 (let ((?x124 (ite $x60 ?x88 (ite $x63 (concat (_ bv0 8) (_ bv0 1)) ?x102))))
 (let (($x41 (= ?x124 (_ bv511 9))))
 (and (and (not $x41) $x130) (= ?x131 3)))))))))))))))))))))))))
(check-sat)

